60
1242
5
40
22
1
5
64
0 1
0 4
0 5
0 6
0 7
0 8
0 9
0 11
0 12
0 13
0 14
0 16
0 17
0 18
0 20
0 21
0 22
0 23
0 24
0 26
0 27
0 29
0 31
0 32
0 35
0 37
0 39
0 40
0 42
0 44
0 45
0 47
0 49
0 50
0 51
0 52
0 53
0 54
0 55
0 56
1 2
1 3
1 4
1 5
1 6
1 7
1 8
1 9
1 11
1 13
1 14
1 15
1 16
1 17
1 18
1 19
1 21
1 22
1 24
1 25
1 27
1 28
1 29
1 30
1 34
1 36
1 37
1 39
1 40
1 44
1 45
1 47
1 48
1 50
1 51
1 52
1 53
1 54
1 55
1 57
1 58
1 59
2 3
2 4
2 5
2 7
2 8
2 9
2 10
2 15
2 17
2 18
2 19
2 20
2 22
2 23
2 24
2 25
2 26
2 27
2 29
2 30
2 32
2 33
2 34
2 35
2 37
2 38
2 39
2 41
2 43
2 44
2 45
2 46
2 47
2 48
2 49
2 53
2 54
2 55
2 56
2 57
2 59
3 4
3 6
3 7
3 11
3 12
3 14
3 15
3 16
3 17
3 18
3 19
3 20
3 22
3 23
3 26
3 28
3 29
3 31
3 32
3 33
3 34
3 36
3 40
3 41
3 43
3 44
3 46
3 49
3 50
3 51
3 52
3 53
3 54
3 55
3 56
3 57
3 58
3 59
4 5
4 6
4 7
4 8
4 9
4 10
4 11
4 12
4 13
4 14
4 18
4 20
4 21
4 23
4 24
4 26
4 27
4 28
4 33
4 34
4 35
4 36
4 37
4 39
4 42
4 44
4 46
4 47
4 51
4 52
4 55
4 58
4 59
5 8
5 9
5 10
5 12
5 13
5 14
5 15
5 16
5 17
5 20
5 21
5 22
5 23
5 24
5 26
5 28
5 29
5 30
5 31
5 32
5 35
5 37
5 39
5 40
5 42
5 43
5 44
5 45
5 46
5 47
5 48
5 51
5 52
5 54
5 56
5 57
5 59
6 7
6 9
6 10
6 12
6 13
6 17
6 18
6 19
6 21
6 22
6 23
6 24
6 26
6 27
6 28
6 31
6 32
6 33
6 34
6 40
6 41
6 42
6 44
6 45
6 47
6 49
6 50
6 53
6 54
6 55
6 56
6 57
6 58
6 59
7 8
7 9
7 10
7 11
7 12
7 13
7 14
7 17
7 18
7 20
7 21
7 23
7 24
7 25
7 26
7 27
7 28
7 30
7 31
7 32
7 34
7 35
7 36
7 37
7 39
7 40
7 41
7 42
7 43
7 44
7 45
7 46
7 47
7 49
7 50
7 51
7 53
7 54
7 56
7 57
8 9
8 10
8 11
8 12
8 13
8 14
8 16
8 17
8 18
8 19
8 20
8 21
8 22
8 23
8 24
8 25
8 26
8 27
8 28
8 29
8 30
8 33
8 34
8 35
8 37
8 38
8 39
8 40
8 42
8 43
8 44
8 46
8 47
8 48
8 49
8 50
8 51
8 52
8 53
8 54
8 55
8 56
9 10
9 12
9 13
9 14
9 15
9 16
9 17
9 18
9 19
9 20
9 21
9 23
9 24
9 26
9 27
9 28
9 30
9 31
9 32
9 35
9 36
9 37
9 38
9 39
9 40
9 42
9 43
9 44
9 45
9 46
9 48
9 50
9 51
9 52
9 54
9 57
9 58
10 11
10 14
10 15
10 18
10 19
10 20
10 21
10 23
10 24
10 25
10 26
10 27
10 28
10 29
10 30
10 31
10 33
10 34
10 35
10 36
10 38
10 40
10 42
10 43
10 44
10 46
10 48
10 49
10 50
10 53
10 55
10 56
10 59
11 12
11 13
11 15
11 16
11 20
11 21
11 22
11 23
11 24
11 25
11 26
11 28
11 29
11 30
11 35
11 36
11 39
11 40
11 41
11 42
11 45
11 46
11 47
11 48
11 49
11 51
11 52
11 55
11 56
11 58
11 59
12 13
12 15
12 16
12 17
12 18
12 19
12 20
12 22
12 23
12 25
12 26
12 27
12 32
12 34
12 35
12 37
12 38
12 40
12 41
12 42
12 43
12 45
12 46
12 47
12 48
12 50
12 51
12 52
12 54
12 55
12 56
12 57
12 58
12 59
13 14
13 15
13 16
13 17
13 18
13 19
13 21
13 24
13 26
13 27
13 31
13 33
13 34
13 35
13 37
13 38
13 39
13 40
13 41
13 43
13 46
13 47
13 48
13 49
13 51
13 57
13 58
14 15
14 16
14 17
14 20
14 22
14 24
14 25
14 26
14 28
14 29
14 30
14 31
14 32
14 33
14 34
14 36
14 37
14 39
14 40
14 41
14 42
14 43
14 44
14 45
14 46
14 47
14 49
14 50
14 51
14 53
14 54
14 55
14 56
14 57
14 58
14 59
15 16
15 18
15 19
15 20
15 21
15 22
15 24
15 25
15 28
15 29
15 30
15 31
15 32
15 33
15 34
15 35
15 36
15 37
15 38
15 39
15 40
15 41
15 43
15 45
15 46
15 48
15 49
15 51
15 53
15 54
15 56
15 57
15 58
16 17
16 18
16 19
16 21
16 25
16 26
16 28
16 29
16 31
16 32
16 33
16 35
16 36
16 39
16 40
16 41
16 42
16 45
16 46
16 48
16 49
16 50
16 51
16 52
16 53
16 55
16 56
16 57
16 58
16 59
17 19
17 20
17 22
17 23
17 28
17 29
17 32
17 33
17 35
17 38
17 39
17 40
17 41
17 42
17 43
17 44
17 45
17 46
17 48
17 49
17 51
17 52
17 55
17 56
17 57
17 59
18 19
18 20
18 21
18 24
18 25
18 26
18 27
18 28
18 29
18 31
18 33
18 34
18 35
18 36
18 37
18 38
18 40
18 41
18 42
18 43
18 44
18 45
18 46
18 48
18 49
18 52
18 53
18 54
18 55
18 56
18 58
18 59
19 21
19 22
19 23
19 24
19 25
19 26
19 27
19 28
19 30
19 31
19 32
19 33
19 34
19 36
19 38
19 39
19 40
19 42
19 43
19 44
19 45
19 46
19 48
19 49
19 50
19 52
19 54
19 55
19 56
20 23
20 25
20 27
20 28
20 29
20 32
20 33
20 34
20 35
20 36
20 37
20 38
20 42
20 43
20 44
20 46
20 47
20 48
20 49
20 51
20 52
20 53
20 55
20 56
20 57
20 58
20 59
21 22
21 24
21 25
21 27
21 28
21 29
21 30
21 31
21 32
21 35
21 36
21 37
21 38
21 40
21 41
21 42
21 43
21 44
21 46
21 48
21 49
21 50
21 51
21 53
21 54
21 55
21 56
21 57
21 58
21 59
22 26
22 27
22 28
22 29
22 31
22 32
22 33
22 34
22 35
22 37
22 38
22 40
22 43
22 44
22 45
22 46
22 47
22 48
22 49
22 50
22 51
22 52
22 53
22 55
22 58
23 24
23 26
23 27
23 29
23 30
23 31
23 33
23 34
23 35
23 36
23 38
23 39
23 40
23 41
23 44
23 45
23 46
23 47
23 48
23 49
23 51
23 53
23 55
23 56
23 58
23 59
24 25
24 26
24 27
24 29
24 30
24 31
24 33
24 35
24 36
24 37
24 38
24 42
24 45
24 46
24 47
24 49
24 52
24 53
24 54
24 55
24 57
24 58
24 59
25 26
25 27
25 28
25 29
25 30
25 31
25 32
25 34
25 35
25 36
25 37
25 38
25 41
25 42
25 43
25 44
25 45
25 46
25 47
25 48
25 50
25 53
25 54
25 55
25 56
25 57
25 58
26 27
26 28
26 30
26 31
26 32
26 34
26 35
26 36
26 40
26 41
26 42
26 44
26 45
26 48
26 49
26 51
26 52
26 55
26 57
26 58
27 29
27 32
27 33
27 34
27 36
27 37
27 38
27 43
27 44
27 46
27 47
27 48
27 49
27 50
27 51
27 52
27 53
27 55
27 56
27 57
28 29
28 32
28 33
28 36
28 37
28 43
28 44
28 45
28 46
28 47
28 48
28 49
28 50
28 51
28 53
28 54
28 55
28 57
28 58
28 59
29 30
29 31
29 33
29 35
29 36
29 37
29 38
29 43
29 44
29 45
29 46
29 47
29 48
29 51
29 53
29 54
29 55
29 56
29 57
29 58
29 59
30 31
30 32
30 35
30 36
30 37
30 39
30 40
30 41
30 42
30 45
30 47
30 50
30 51
30 52
30 53
30 54
30 57
30 58
30 59
31 33
31 36
31 38
31 40
31 42
31 43
31 44
31 45
31 46
31 47
31 48
31 49
31 52
31 53
31 54
31 55
31 57
31 58
31 59
32 33
32 34
32 35
32 37
32 39
32 42
32 44
32 46
32 48
32 51
32 52
32 53
32 55
32 56
32 58
32 59
33 34
33 38
33 39
33 41
33 42
33 44
33 46
33 47
33 48
33 50
33 51
33 52
33 53
33 55
33 56
33 57
33 58
34 35
34 36
34 37
34 39
34 40
34 41
34 42
34 43
34 44
34 45
34 46
34 47
34 49
34 50
34 52
34 53
34 54
34 55
34 56
34 58
34 59
35 39
35 40
35 42
35 43
35 44
35 45
35 46
35 47
35 48
35 49
35 53
35 54
35 55
35 59
36 41
36 42
36 43
36 45
36 47
36 48
36 52
36 53
36 55
36 57
36 58
36 59
37 38
37 40
37 41
37 42
37 45
37 46
37 47
37 49
37 51
37 53
37 54
37 55
37 56
37 58
37 59
38 40
38 41
38 42
38 44
38 46
38 47
38 48
38 49
38 51
38 52
38 53
38 54
38 55
38 56
38 57
38 58
38 59
39 40
39 41
39 42
39 43
39 44
39 46
39 47
39 49
39 51
39 52
39 54
39 55
39 56
39 58
39 59
40 41
40 42
40 43
40 44
40 45
40 46
40 48
40 49
40 51
40 52
40 53
40 54
40 55
40 56
40 57
40 58
40 59
41 43
41 45
41 47
41 49
41 50
41 51
41 52
41 53
41 55
41 56
41 57
41 59
42 43
42 44
42 45
42 46
42 47
42 48
42 49
42 50
42 51
42 53
42 54
42 55
42 57
42 59
43 44
43 45
43 46
43 47
43 49
43 50
43 51
43 52
43 55
43 59
44 46
44 49
44 51
44 53
44 54
44 55
44 56
44 57
44 58
44 59
45 46
45 47
45 49
45 50
45 51
45 52
45 53
45 54
45 55
45 56
45 57
45 59
46 47
46 49
46 51
46 52
46 53
46 54
46 56
46 57
46 58
47 48
47 49
47 50
47 51
47 52
47 54
47 55
47 56
47 58
47 59
48 49
48 51
48 53
48 54
48 55
48 56
48 57
48 58
48 59
49 51
49 53
49 54
49 55
49 56
49 57
49 58
49 59
50 51
50 52
50 54
50 55
50 56
50 58
51 52
51 53
51 56
51 57
51 58
51 59
52 54
52 56
52 57
52 58
52 59
53 54
53 55
53 56
53 57
53 58
53 59
54 55
54 56
54 59
55 56
55 58
55 59
56 57
56 58
56 59
2 56 11 16 43 51 41 21 7 19 30 26
8 50 5 31 9 6 38 23 4 40 32 35
25 12 18 46 0 45 14 10 44 55 53 20
34 27 39 13 1 22 28 58 37 3 52 33
42 36 59 29 57 15 47 24 17 48 54 49
